(declare-const v0 Bool)
(declare-const v1 Bool)
(declare-const v2 Bool)
(declare-const v3 Bool)
(declare-const v4 Bool)
(assert (edge v0 true))
(assert (edge true (or v2 (not v4))))
(assert (edge true v4))
(assert (edge v1 (or v2 (not v4))))
(assert (edge (or v1 v3) (or v4 (not v3))))
(assert (not (edge (or (not v1) v4 (not v2)) (or v1 v3))))